(set-info :smt-lib-version 2.6)
(set-logic QF_UFLRA)
(set-info :source |
MathSat group

|)
(set-info :category "random")
(set-info :status sat)
(declare-fun x0 () Real)
(declare-fun x1 () Real)
(declare-fun x2 () Real)
(declare-fun x3 () Real)
(declare-fun x4 () Real)
(declare-fun x5 () Real)
(declare-fun x6 () Real)
(declare-fun x7 () Real)
(declare-fun x8 () Real)
(declare-fun x9 () Real)
(declare-fun x10 () Real)
(declare-fun x11 () Real)
(declare-fun x12 () Real)
(declare-fun x13 () Real)
(declare-fun x14 () Real)
(declare-fun x15 () Real)
(declare-fun x16 () Real)
(declare-fun x17 () Real)
(declare-fun x18 () Real)
(declare-fun x19 () Real)
(declare-fun x20 () Real)
(declare-fun x21 () Real)
(declare-fun x22 () Real)
(declare-fun x23 () Real)
(declare-fun x24 () Real)
(declare-fun x25 () Real)
(declare-fun x26 () Real)
(declare-fun x27 () Real)
(declare-fun x28 () Real)
(declare-fun x29 () Real)
(declare-fun x30 () Real)
(declare-fun x31 () Real)
(declare-fun x32 () Real)
(declare-fun x33 () Real)
(declare-fun x34 () Real)
(declare-fun x35 () Real)
(declare-fun x36 () Real)
(declare-fun x37 () Real)
(declare-fun x38 () Real)
(declare-fun x39 () Real)
(declare-fun f0_1 (Real) Real)
(declare-fun f0_2 (Real Real) Real)
(declare-fun f0_3 (Real Real Real) Real)
(declare-fun f0_4 (Real Real Real Real) Real)
(declare-fun P0 () Bool)
(declare-fun P1 () Bool)
(declare-fun P2 () Bool)
(declare-fun P3 () Bool)
(declare-fun P4 () Bool)
(declare-fun P5 () Bool)
(declare-fun P6 () Bool)
(declare-fun P7 () Bool)
(declare-fun P8 () Bool)
(declare-fun P9 () Bool)
(declare-fun P10 () Bool)
(declare-fun P11 () Bool)
(declare-fun P12 () Bool)
(declare-fun P13 () Bool)
(declare-fun P14 () Bool)
(declare-fun P15 () Bool)
(declare-fun P16 () Bool)
(declare-fun P17 () Bool)
(declare-fun P18 () Bool)
(declare-fun P19 () Bool)
(declare-fun P20 () Bool)
(declare-fun P21 () Bool)
(declare-fun P22 () Bool)
(declare-fun P23 () Bool)
(declare-fun P24 () Bool)
(declare-fun P25 () Bool)
(declare-fun P26 () Bool)
(declare-fun P27 () Bool)
(declare-fun P28 () Bool)
(declare-fun P29 () Bool)
(declare-fun P30 () Bool)
(declare-fun P31 () Bool)
(declare-fun P32 () Bool)
(declare-fun P33 () Bool)
(declare-fun P34 () Bool)
(declare-fun P35 () Bool)
(declare-fun P36 () Bool)
(declare-fun P37 () Bool)
(declare-fun P38 () Bool)
(declare-fun P39 () Bool)
(assert (let ((?v_75 (* 54 x3)) (?v_56 (<= (- (+ (* 10 x35) (* 35 x4)) (* 6 x22)) 38)) (?v_29 (<= (- (- (* 48 x1) (* 29 x11)) (* 11 x30)) 13)) (?v_98 (* 27 x26)) (?v_48 (< (+ (- (* 38 x14) (* 9 x37)) (* 6 x28)) 33)) (?v_8 (<= (- (- (* 52 x27) (* 5 x38)) (* 55 x35)) 19)) (?v_7 (<= (- (+ (* 17 x28) (* 2 x25)) (* 24 x35)) 49)) (?v_15 (* 30 x21)) (?v_92 (= (f0_2 x7 x38) x34)) (?v_74 (f0_1 x0))) (let ((?v_196 (distinct ?v_74 (f0_2 x0 x28))) (?v_55 (= x19 x8)) (?v_140 (distinct x1 x37)) (?v_24 (= (f0_2 x27 x37) (f0_1 x12))) (?v_61 (f0_1 x27))) (let ((?v_104 (distinct ?v_61 (f0_2 x21 x9))) (?v_63 (f0_1 x32))) (let ((?v_105 (distinct (f0_2 x27 x35) ?v_63)) (?v_34 (f0_1 x24))) (let ((?v_62 (distinct ?v_34 (f0_2 x35 x5))) (?v_43 (f0_1 x38))) (let ((?v_76 (distinct ?v_43 x7)) (?v_1 (f0_1 x11))) (let ((?v_80 (= x1 ?v_1)) (?v_23 (= x30 x18)) (?v_44 (= x24 (f0_2 x21 x15))) (?v_6 (f0_1 x15))) (let ((?v_19 (= x34 ?v_6)) (?v_189 (= x10 x34)) (?v_45 (f0_1 x14))) (let ((?v_119 (distinct ?v_45 (f0_1 x26))) (?v_183 (= (f0_2 x28 x37) (f0_1 x39))) (?v_109 (distinct x13 (f0_2 x35 x24))) (?v_2 (distinct (f0_2 x32 x20) (f0_2 x0 x0))) (?v_84 (= (f0_1 x20) x32)) (?v_5 (f0_1 x33))) (let ((?v_66 (distinct ?v_5 x29)) (?v_10 (distinct (f0_2 x5 x39) ?v_1)) (?v_25 (distinct ?v_45 (f0_2 x33 x25))) (?v_128 (distinct x21 ?v_74)) (?v_139 (distinct ?v_6 ?v_34)) (?v_17 (= (f0_1 x21) ?v_6)) (?v_95 (= (f0_2 x14 x35) (f0_2 x1 x26))) (?v_12 (distinct (f0_2 x4 x13) ?v_43)) (?v_13 (distinct (f0_2 x19 x18) x30)) (?v_106 (distinct (f0_1 x25) ?v_63)) (?v_11 (= (f0_1 x30) (f0_2 x32 x31))) (?v_60 (distinct x1 x22)) (?v_51 (= (f0_1 x2) x26)) (?v_9 (= x1 ?v_5)) (?v_179 (= x2 (f0_2 x18 x31))) (?v_150 (= (f0_1 x37) ?v_5)) (?v_94 (distinct (f0_1 x7) ?v_61)) (?v_91 (distinct (f0_2 x35 x37) (f0_2 x3 x19))) (?v_152 (= (f0_2 x0 x12) x34)) (?v_132 (= (f0_2 x35 x12) (f0_1 x22))) (?v_142 (distinct (f0_2 x21 x19) x27)) (?v_165 (not ?v_189)) (?v_69 (not P19)) (?v_108 (not ?v_23))) (let ((?v_88 (not ?v_128)) (?v_33 (not ?v_55)) (?v_118 (not ?v_66)) (?v_73 (not P22)) (?v_57 (not P30)) (?v_103 (not P5)) (?v_22 (not ?v_139)) (?v_126 (not P36)) (?v_138 (not ?v_60)) (?v_32 (not P4)) (?v_71 (not P16)) (?v_156 (not P34)) (?v_46 (not ?v_7)) (?v_161 (not P0)) (?v_136 (not P24)) (?v_168 (not P13)) (?v_21 (not ?v_9)) (?v_93 (not P27)) (?v_59 (not ?v_179)) (?v_67 (not ?v_152)) (?v_54 (not ?v_12)) (?v_27 (not ?v_17)) (?v_97 (not P14)) (?v_151 (not ?v_13)) (?v_18 (not ?v_48)) (?v_167 (not ?v_11)) (?v_36 (not ?v_10)) (?v_123 (not ?v_109)) (?v_49 (not ?v_19)) (?v_160 (not P33)) (?v_153 (not ?v_95)) (?v_68 (not ?v_183)) (?v_38 (not ?v_51)) (?v_127 (not P3)) (?v_141 (not ?v_105)) (?v_37 (not ?v_56)) (?v_162 (not P11)) (?v_78 (not P20)) (?v_35 (not P9)) (?v_87 (not ?v_94)) (?v_116 (not ?v_62)) (?v_111 (not ?v_44)) (?v_82 (not P35)) (?v_58 (not ?v_92)) (?v_120 (not ?v_140)) (?v_122 (not P29)) (?v_200 (not P28)) (?v_114 (not P38)) (?v_131 (not ?v_150)) (?v_206 (not P12)) (?v_185 (not P8)) (?v_148 (not ?v_106)) (?v_83 (not ?v_196)) (?v_115 (not ?v_76)) (?v_199 (not ?v_80)) (?v_124 (not ?v_132)) (?v_96 (not P17)) (?v_100 (not P37)) (?v_174 (not P1)) (?v_209 (not P32)) (?v_187 (not ?v_24)) (?v_176 (not ?v_104)) (?v_164 (not ?v_2)) (?v_197 (not P6)) (?v_155 (not P18)) (?v_147 (not ?v_84)) (?v_129 (not ?v_119)) (?v_149 (not P39)) (?v_154 (not P7)) (?v_171 (not P25)) (?v_137 (not P31)) (?v_144 (not P2)) (?v_210 (or ?v_8 ?v_29)) (?v_192 (not ?v_142)) (?v_173 (not P15)) (?v_191 (not ?v_91)) (?v_201 (not P21)) (?v_182 (not ?v_29)) (?v_184 (not P10)) (?v_190 (not ?v_25)) (?v_202 (not P26)) (?v_203 (not P23)) (?v_0 (< (+ (* 40 x37) (* 26 x26) (* 47 x35)) 32)) (?v_102 (< (- (- ?v_15 (* 9 x29)) 0) 52))) (let ((?v_41 (not ?v_102)) (?v_16 (not ?v_0)) (?v_81 (< (+ (* 36 x29) (* 57 x28) (* 50 x29)) 55))) (let ((?v_42 (not ?v_81)) (?v_89 (<= (+ (* 17 x36) (* 30 x2) ?v_15) 24)) (?v_79 (< (- (* 8 x33) (* 13 x8)) 12))) (let ((?v_85 (not ?v_79)) (?v_186 (not ?v_89)) (?v_65 (= (- (- (* (- 22) x35) x31) ?v_98) 18))) (let ((?v_20 (not ?v_65)) (?v_3 (< (- (+ (* (- 26) x38) (* 42 x1)) (* 21 x10)) (- 6)))) (let ((?v_30 (not ?v_3)) (?v_64 (< (- (- (* (- 23) x8) (* 10 x12)) (* 51 x38)) (- 31)))) (let ((?v_180 (not ?v_64)) (?v_53 (<= (+ (* (- 18) x6) x28 (* 39 x22)) 11)) (?v_205 (<= (+ (- (* (- 16) x3) (* 14 x9)) (* 22 x31)) 39))) (let ((?v_39 (not ?v_205)) (?v_4 (<= (+ (* (- 52) x8) (* 10 x22) (* 29 x36)) (- 47)))) (let ((?v_31 (not ?v_4)) (?v_26 (<= (- (+ (* 10 x30) (* 16 x23)) (* 53 x32)) (- 43)))) (let ((?v_14 (not ?v_26)) (?v_107 (= (- (+ (* 47 x3) (* 11 x24)) (* 5 x21)) (- 18)))) (let ((?v_50 (not ?v_107)) (?v_169 (< (- (+ (* 7 x27) (* 52 x24)) ?v_75) (- 46)))) (let ((?v_40 (not ?v_169)) (?v_101 (< (+ (* (- 56) x1) (* 38 x34)) (- 2)))) (let ((?v_86 (not ?v_101)) (?v_110 (<= (- (+ (* 52 x19) (* 23 x36)) (* 25 x5)) (- 12))) (?v_172 (< (- (+ (* (- 5) x6) (* 17 x38)) (* 19 x31)) 7))) (let ((?v_193 (not ?v_172)) (?v_195 (<= (- (- (* (- 12) x19) 0) (* 49 x31)) (- 3)))) (let ((?v_47 (not ?v_195)) (?v_77 (<= (- (+ (* (- 53) x12) (* 46 x30)) (* 42 x37)) (- 27))) (?v_125 (< (+ (- (* (- 9) x10) (* 51 x25)) (* 50 x37)) (- 34))) (?v_135 (< (- (- (* 9 x39) (* 12 x6)) (* 24 x31)) (- 35)))) (let ((?v_121 (not ?v_135)) (?v_72 (< (+ (* 37 x18) (* 54 x4) (* 35 x25)) (- 42))) (?v_28 (<= (- (+ (* (- 47) x12) (* 18 x25)) (* 50 x15)) 55)) (?v_188 (< (- (+ (* (- 40) x9) (* 44 x28)) (* 28 x38)) 54)) (?v_212 (<= (+ (* (- 41) x2) (* 28 x15) (* 57 x17)) 28))) (let ((?v_134 (not ?v_212)) (?v_90 (<= (+ (* (- 43) x33) (* 45 x36) (* 33 x29)) 25)) (?v_52 (< (+ (- (* (- 12) x15) (* 43 x8)) (* 18 x18)) 14)) (?v_133 (<= (+ (- (* 48 x26) (* 36 x28)) x25) (- 55)))) (let ((?v_145 (not ?v_133)) (?v_70 (not ?v_52)) (?v_130 (distinct (+ (* (- 13) x6) (* 56 x36) (* 37 x13)) 12)) (?v_146 (not ?v_72)) (?v_117 (< (- (- (* (- 12) x1) (* 16 x28)) ?v_75) 50))) (let ((?v_175 (not ?v_117)) (?v_157 (< (- (+ (* (- 30) x24) (* 11 x6)) (* 20 x28)) 32))) (let ((?v_166 (not ?v_157)) (?v_143 (not ?v_77)) (?v_112 (<= (- (- (* (- 32) x26) (* 21 x22)) (* 23 x17)) (- 17))) (?v_99 (= (- (+ (* (- 51) x1) (* 11 x18)) ?v_98) (- 38))) (?v_159 (<= (- (+ (* (- 18) x2) (* 40 x9)) (* 11 x5)) (- 22))) (?v_113 (<= (+ (- (* (- 8) x25) x3) (* 38 x35)) 6)) (?v_194 (not ?v_90)) (?v_208 (or ?v_109 ?v_110))) (let ((?v_158 (not ?v_112)) (?v_170 (not ?v_28)) (?v_178 (not ?v_130)) (?v_177 (not ?v_110)) (?v_163 (not ?v_159)) (?v_181 (not ?v_99)) (?v_204 (not ?v_125)) (?v_211 (not ?v_113)) (?v_198 (not ?v_188)) (?v_207 (not ?v_53))) (and (and (and (and (and (and (and (and (and (and (and (and (and (and (and (and (and (and (and (and (and (and (and (and (and (and (and (and (and (and (and (and (and (and (and (and (and (and (and (and (and (and (and (and (and (and (and (and (and (and (and (and (and (and (and (and (and (and (and (and (and (and (and (and (and (and (and (and (and (and (and (and (and (and (and (and (and (and (and (and (and (and (and (and (and (and (and (and (and (and (and (and (and (and (and (and (and (and (and (and (and (and (and (and (and (and (and (and (and (and (and (and (and (and (and (and (and (and (and (and (and (and (and (and (and (and (and (and (and (and (and (and (and (and (and (and (and (and (and (and (and (and (and (and (and (and (and (and (and (and (and (and (and (and (and (and (and (and (and (and (and (and (and (and (and (and (and (and (and (and (and (and (and (and (and (and (and (and (and (and (and (and (and (and (and (and (and (and (and (and (and (and (and (and (and (and (and (and (and (and (and (and (and (and (and (and (and (and (and (and (and (and (and (and (and (and (and (and (and (and (and (and (and (and (and (and (and (and (and (and (and (and (and (and (and (and (and (and (and (and (and (and (and (and (and (and (and (and (and (and (and (and (and (and (and (and (and (and (and (and (and (and (and (and (and (and (and (and (and (and (and (and (and (and (and (and (and (and (and (and (and (and (and (and (and (and (and (and (and (and (and (and (and (and (and (and (and (and (and (and (and (and (and (and (and (and (and (and (and (and (and (and (and (and (and (and (and (and (and (and (and (and (and (and (and (and (and (and (and (and (and (and (and (and (and (and (and (and (and (and (and (and (and (and (and (and (and (and (and (and (and (and (and (and (and (and (and (and (and (and (and (and (and (and (and (and (and (and (and (and (and (and (and (and (and (and (and (and (and (and (and (and (and (and (and (and (and (and (and (and (and (and (and (and (and (and (and (and (and (and (and (and (and (and (and (and (and (and (and (and (and (and (and (and (and (and (and (and (and (and (and (and (and (and (and (and (and (and (and (and (and (and (and (and (and (and (and (and (and (and (and (and (and (and (and (and (and (and (and (and (and (and (and (and (and (and (and (and (and (and (and (and (and (and (and (and (and (and (and (and (and (and (and (and (and (and (and (and (and (or (or ?v_20 P17) ?v_165) (or (or ?v_69 ?v_108) P33)) (or (or ?v_0 ?v_44) P28)) (or (or P32 ?v_8) ?v_41)) (or (or ?v_88 P16) ?v_16)) (or (or ?v_30 ?v_180) ?v_12)) (or (or ?v_33 ?v_118) P33)) (or (or ?v_11 ?v_73) ?v_80)) (or (or ?v_57 ?v_53) P25)) (or (or P3 P37) ?v_103)) (or (or ?v_2 ?v_22) ?v_24)) (or (or ?v_10 ?v_39) ?v_126)) (or (or ?v_138 ?v_31) ?v_2)) (or (or ?v_3 ?v_32) ?v_71)) (or (or ?v_156 ?v_46) ?v_161)) (or (or ?v_14 ?v_4) ?v_136)) (or (or ?v_168 ?v_50) ?v_21)) (or (or P37 ?v_93) ?v_40)) (or (or ?v_86 ?v_110) ?v_25)) (or (or ?v_193 P26) ?v_19)) (or (or P17 P13) ?v_59)) (or (or ?v_13 ?v_7) ?v_29)) (or (or ?v_8 ?v_67) ?v_9)) (or (or ?v_10 ?v_2) ?v_11)) (or (or P23 ?v_54) ?v_13)) (or (or P9 ?v_27) ?v_47)) (or (or P5 ?v_77) ?v_97)) (or (or P22 ?v_14) ?v_151)) (or (or ?v_42 ?v_89) P6)) (or (or P12 P26) ?v_16)) (or (or ?v_12 P25) ?v_17)) (or (or ?v_18 ?v_18) P17)) (or (or ?v_167 ?v_36) ?v_125)) (or (or ?v_121 ?v_123) ?v_49)) (or (or ?v_4 ?v_160) ?v_12)) (or (or ?v_153 ?v_20) ?v_21)) (or (or ?v_22 ?v_72) ?v_23)) (or (or ?v_24 ?v_68) ?v_16)) (or (or P23 ?v_38) ?v_25)) (or (or ?v_26 ?v_79) P26)) (or (or P12 ?v_127) ?v_27)) (or (or ?v_28 ?v_28) ?v_29)) (or (or P19 ?v_30) ?v_141)) (or (or ?v_31 ?v_32) ?v_37)) (or (or ?v_13 ?v_188) ?v_134)) (or (or ?v_84 ?v_29) ?v_162)) (or (or ?v_78 P32) ?v_35)) (or (or ?v_87 ?v_33) ?v_116)) (or (or ?v_31 ?v_35) ?v_36)) (or (or ?v_37 ?v_38) ?v_27)) (or (or ?v_39 ?v_40) P14)) (or (or ?v_26 ?v_41) P23)) (or (or P10 ?v_42) ?v_13)) (or (or ?v_76 ?v_111) ?v_119)) (or (or P21 ?v_82) ?v_46)) (or (or ?v_90 P3) ?v_47)) (or (or ?v_52 ?v_41) ?v_58)) (or (or ?v_120 ?v_122) ?v_48)) (or (or ?v_49 ?v_50) P30)) (or (or P4 ?v_200) ?v_51)) (or (or ?v_52 ?v_26) P32)) (or (or P32 P30) ?v_114)) (or (or ?v_53 ?v_54) ?v_55)) (or (or ?v_31 ?v_56) ?v_12)) (or (or ?v_57 ?v_38) ?v_58)) (or (or ?v_145 ?v_59) ?v_12)) (or (or ?v_131 ?v_56) ?v_70)) (or (or ?v_12 ?v_206) ?v_60)) (or (or ?v_185 P24) ?v_104)) (or (or P30 ?v_130) ?v_62)) (or (or ?v_38 ?v_148) P15)) (or (or ?v_18 ?v_57) ?v_2)) (or (or ?v_64 ?v_65) ?v_42)) (or (or ?v_52 ?v_66) ?v_57)) (or (or ?v_67 P20) ?v_62)) (or (or ?v_68 P7) ?v_26)) (or (or ?v_69 ?v_40) ?v_70)) (or (or ?v_71 ?v_146) ?v_73)) (or (or ?v_83 ?v_59) ?v_175)) (or (or ?v_115 ?v_166) ?v_77)) (or (or ?v_54 ?v_78) P37)) (or (or ?v_85 ?v_199) P16)) (or (or ?v_81 ?v_82) ?v_10)) (or (or ?v_60 ?v_83) ?v_84)) (or (or ?v_54 ?v_85) ?v_86)) (or (or ?v_58 ?v_87) P7)) (or (or ?v_83 P16) ?v_124)) (or (or ?v_86 P3) ?v_40)) (or (or ?v_96 ?v_17) ?v_91)) (or (or P15 ?v_88) ?v_186)) (or (or ?v_90 ?v_91) P35)) (or (or ?v_92 ?v_93) ?v_94)) (or (or P12 ?v_10) ?v_143)) (or (or ?v_8 P26) ?v_28)) (or (or P4 ?v_95) ?v_76)) (or (or ?v_96 ?v_100) P28)) (or (or ?v_174 ?v_97) ?v_209)) (or (or ?v_83 ?v_65) ?v_112)) (or (or ?v_99 ?v_27) ?v_25)) (or (or ?v_26 ?v_51) ?v_10)) (or (or P7 ?v_99) ?v_187)) (or (or ?v_22 ?v_44) ?v_100)) (or (or P27 ?v_101) P1)) (or (or P8 ?v_60) ?v_159)) (or (or ?v_102 ?v_103) ?v_113)) (or (or ?v_176 ?v_105) ?v_92)) (or (or ?v_65 ?v_89) ?v_194)) (or (or ?v_78 ?v_106) ?v_107)) (or (or ?v_88 ?v_100) ?v_142)) (or (or P25 ?v_108) ?v_77)) (or ?v_208 ?v_9)) (or (or ?v_164 ?v_111) P33)) (or (or ?v_76 ?v_158) P14)) (or (or ?v_107 ?v_76) ?v_113)) (or (or ?v_114 ?v_77) ?v_66)) (or (or ?v_197 P19) P31)) (or (or ?v_155 ?v_115) P21)) (or (or P4 ?v_106) ?v_147)) (or (or ?v_16 ?v_116) ?v_117)) (or (or ?v_112 ?v_118) ?v_129)) (or (or ?v_17 ?v_120) ?v_78)) (or (or ?v_100 ?v_62) ?v_107)) (or (or ?v_149 ?v_154) ?v_171)) (or (or P27 ?v_19) ?v_121)) (or (or ?v_122 ?v_123) P27)) (or (or ?v_124 ?v_87) ?v_170)) (or (or ?v_51 ?v_86) ?v_125)) (or (or ?v_4 ?v_117) ?v_37)) (or (or P15 ?v_126) ?v_137)) (or (or P0 ?v_107) ?v_8)) (or (or P38 ?v_127) ?v_128)) (or (or ?v_21 ?v_129) P18)) (or (or ?v_73 P25) ?v_130)) (or (or ?v_79 ?v_131) P26)) (or (or ?v_144 ?v_64) ?v_107)) (or (or ?v_39 ?v_44) ?v_89)) (or (or P10 ?v_20) P28)) (or (or ?v_121 ?v_69) ?v_77)) (or (or ?v_7 ?v_33) ?v_132)) (or (or ?v_128 ?v_30) ?v_73)) (or (or ?v_110 ?v_100) ?v_11)) (or (or P19 ?v_60) P9)) (or (or ?v_49 P22) ?v_86)) (or (or ?v_133 ?v_108) ?v_114)) (or (or ?v_95 ?v_81) P17)) (or (or ?v_134 ?v_50) ?v_124)) (or (or ?v_13 ?v_65) P5)) (or (or ?v_127 P24) ?v_81)) (or (or ?v_135 P19) ?v_136)) (or (or ?v_109 P5) ?v_50)) (or (or ?v_135 ?v_137) ?v_138)) (or (or ?v_60 ?v_137) ?v_125)) (or (or P37 ?v_96) ?v_3)) (or (or ?v_104 P35) ?v_70)) (or (or ?v_139 ?v_178) ?v_85)) (or (or ?v_127 ?v_105) P2)) (or (or ?v_140 ?v_18) P30)) (or ?v_210 ?v_141)) (or (or ?v_99 P14) ?v_36)) (or (or ?v_120 ?v_28) ?v_192)) (or (or P4 ?v_125) ?v_97)) (or (or ?v_18 ?v_143) ?v_55)) (or (or P22 ?v_44) ?v_144)) (or (or ?v_145 ?v_103) ?v_40)) (or (or ?v_2 ?v_92) P9)) (or (or P11 ?v_126) ?v_39)) (or (or ?v_31 P27) ?v_73)) (or (or ?v_24 ?v_93) ?v_177)) (or (or ?v_17 ?v_33) P11)) (or (or ?v_51 ?v_117) ?v_146)) (or (or ?v_147 ?v_62) ?v_148)) (or (or ?v_36 P29) ?v_37)) (or (or ?v_140 P1) P9)) (or (or ?v_59 ?v_149) P16)) (or (or ?v_121 ?v_92) ?v_150)) (or (or ?v_151 ?v_152) ?v_153)) (or (or ?v_76 ?v_76) ?v_154)) (or (or ?v_142 ?v_10) ?v_60)) (or (or ?v_155 ?v_83) ?v_156)) (or (or ?v_111 P25) ?v_40)) (or (or P29 ?v_156) P21)) (or (or ?v_20 ?v_157) ?v_158)) (or (or ?v_163 ?v_130) P17)) (or (or P13 ?v_52) ?v_160)) (or (or P22 ?v_25) ?v_87)) (or (or P17 ?v_87) ?v_181)) (or (or ?v_161 ?v_80) ?v_47)) (or (or ?v_56 ?v_4) P22)) (or (or ?v_42 ?v_142) ?v_12)) (or (or ?v_90 ?v_156) ?v_22)) (or (or ?v_162 ?v_24) ?v_131)) (or (or P27 ?v_163) ?v_91)) (or (or ?v_72 ?v_164) ?v_25)) (or (or ?v_10 ?v_87) ?v_57)) (or (or ?v_117 ?v_165) ?v_27)) (or (or ?v_138 ?v_16) ?v_154)) (or (or P39 ?v_4) P10)) (or (or ?v_69 ?v_22) P39)) (or (or ?v_29 P6) ?v_139)) (or (or ?v_51 ?v_12) ?v_161)) (or (or ?v_136 ?v_173) ?v_166)) (or (or ?v_130 P39) ?v_167)) (or (or ?v_168 ?v_9) ?v_19)) (or (or P4 ?v_87) P20)) (or (or ?v_38 ?v_169) ?v_170)) (or (or P10 ?v_115) ?v_171)) (or (or ?v_126 ?v_136) ?v_85)) (or (or ?v_137 ?v_129) ?v_172)) (or (or ?v_127 P9) ?v_143)) (or (or ?v_123 ?v_44) ?v_50)) (or (or ?v_204 ?v_52) ?v_47)) (or (or ?v_173 ?v_81) ?v_155)) (or (or ?v_12 ?v_60) P24)) (or (or ?v_124 ?v_31) ?v_16)) (or (or ?v_211 ?v_32) ?v_154)) (or (or ?v_143 ?v_149) ?v_12)) (or (or ?v_67 ?v_115) ?v_41)) (or (or P30 ?v_66) ?v_19)) (or (or P23 ?v_122) ?v_140)) (or (or ?v_40 P17) ?v_127)) (or (or ?v_191 ?v_85) P0)) (or (or ?v_59 ?v_95) ?v_13)) (or (or ?v_174 ?v_36) ?v_130)) (or (or ?v_175 ?v_16) P14)) (or (or ?v_102 ?v_16) ?v_141)) (or (or ?v_171 ?v_78) ?v_168)) (or (or ?v_39 P31) ?v_90)) (or (or ?v_176 ?v_36) P14)) (or (or P25 P12) P23)) (or (or ?v_60 ?v_172) ?v_49)) (or (or ?v_60 ?v_22) ?v_201)) (or (or ?v_66 ?v_28) ?v_89)) (or (or ?v_29 P22) ?v_120)) (or (or ?v_163 ?v_182) ?v_49)) (or (or ?v_137 ?v_145) ?v_82)) (or (or ?v_85 ?v_111) ?v_53)) (or (or P18 ?v_3) ?v_164)) (or (or ?v_90 ?v_78) ?v_103)) (or (or ?v_105 ?v_97) P38)) (or (or ?v_80 P12) P35)) (or (or P26 P8) P30)) (or (or ?v_153 ?v_36) ?v_31)) (or (or ?v_92 ?v_9) ?v_90)) (or (or ?v_44 ?v_99) ?v_165)) (or (or ?v_47 P20) ?v_2)) (or (or ?v_158 ?v_177) P4)) (or (or ?v_114 P37) ?v_91)) (or (or ?v_122 ?v_122) ?v_86)) (or (or ?v_184 ?v_178) P18)) (or (or ?v_190 ?v_124) ?v_21)) (or (or P8 ?v_22) ?v_102)) (or (or ?v_179 ?v_23) ?v_180)) (or (or ?v_181 ?v_182) ?v_42)) (or (or ?v_31 ?v_83) ?v_132)) (or (or ?v_183 ?v_184) ?v_202)) (or (or ?v_165 ?v_89) ?v_56)) (or (or ?v_69 ?v_78) ?v_71)) (or (or ?v_76 P36) ?v_160)) (or (or ?v_185 ?v_140) ?v_186)) (or (or ?v_145 ?v_41) ?v_180)) (or (or ?v_101 ?v_141) ?v_107)) (or (or ?v_187 ?v_111) ?v_162)) (or (or ?v_62 ?v_123) ?v_144)) (or (or ?v_116 ?v_129) ?v_132)) (or (or ?v_135 ?v_188) ?v_60)) (or (or ?v_83 ?v_156) ?v_72)) (or (or ?v_187 ?v_130) ?v_60)) (or (or ?v_126 P37) P27)) (or (or ?v_100 ?v_79) ?v_126)) (or (or ?v_124 ?v_89) ?v_129)) (or (or ?v_8 ?v_178) P8)) (or (or ?v_177 ?v_18) ?v_130)) (or (or ?v_132 ?v_40) ?v_54)) (or (or ?v_139 ?v_51) ?v_54)) (or (or ?v_174 P5) ?v_153)) (or (or ?v_41 P7) ?v_11)) (or (or ?v_140 ?v_110) P18)) (or (or ?v_92 ?v_144) ?v_83)) (or (or ?v_108 ?v_36) ?v_19)) (or (or ?v_20 ?v_117) ?v_32)) (or (or ?v_27 ?v_185) ?v_198)) (or (or ?v_72 ?v_79) P16)) (or (or ?v_77 ?v_127) ?v_167)) (or (or ?v_84 ?v_172) ?v_151)) (or (or ?v_107 ?v_189) ?v_77)) (or (or ?v_171 ?v_26) ?v_103)) (or (or P4 ?v_11) P6)) (or (or ?v_92 ?v_119) ?v_51)) (or (or ?v_190 ?v_24) ?v_79)) (or (or ?v_178 P6) ?v_155)) (or (or ?v_178 ?v_48) ?v_24)) (or (or ?v_178 P3) ?v_84)) (or (or ?v_11 ?v_126) ?v_71)) (or (or ?v_203 ?v_24) ?v_132)) (or (or ?v_110 ?v_86) ?v_23)) (or (or ?v_116 P34) ?v_104)) (or (or P22 ?v_151) ?v_38)) (or (or P14 ?v_131) P36)) (or (or ?v_169 ?v_18) ?v_37)) (or (or P32 ?v_26) ?v_166)) (or (or ?v_181 ?v_66) ?v_160)) (or (or ?v_159 P18) ?v_97)) (or (or ?v_11 ?v_191) P35)) (or (or ?v_138 ?v_132) ?v_68)) (or (or ?v_58 ?v_192) ?v_65)) (or (or ?v_165 ?v_91) ?v_193)) (or (or ?v_191 ?v_64) ?v_155)) (or (or P27 ?v_77) ?v_161)) (or (or ?v_30 ?v_154) ?v_51)) (or (or ?v_89 ?v_177) ?v_156)) (or (or P24 ?v_133) ?v_194)) (or (or ?v_19 ?v_133) ?v_138)) (or (or ?v_168 ?v_29) ?v_169)) (or (or P34 ?v_186) ?v_110)) (or (or ?v_172 ?v_185) ?v_11)) (or (or P35 ?v_55) ?v_141)) (or (or ?v_158 ?v_10) ?v_25)) (or (or P3 ?v_195) ?v_147)) (or (or ?v_116 ?v_30) P20)) (or (or ?v_41 P36) P35)) (or (or ?v_0 ?v_19) P18)) (or (or ?v_196 ?v_187) P17)) (or (or ?v_152 ?v_134) ?v_104)) (or (or ?v_186 ?v_79) ?v_92)) (or (or ?v_58 P32) ?v_46)) (or (or ?v_171 ?v_2) ?v_77)) (or (or ?v_82 ?v_39) ?v_174)) (or (or ?v_77 ?v_116) ?v_161)) (or (or ?v_123 ?v_22) P4)) (or (or P1 ?v_113) ?v_197)) (or (or ?v_116 P5) ?v_70)) (or (or ?v_89 ?v_136) ?v_79)) (or (or ?v_152 ?v_170) ?v_155)) (or (or ?v_198 ?v_25) P17)) (or (or ?v_199 ?v_23) ?v_137)) (or (or ?v_138 P24) ?v_93)) (or (or P10 ?v_81) P16)) (or (or P38 P5) P35)) (or (or ?v_95 ?v_46) ?v_86)) (or (or ?v_102 P23) ?v_77)) (or (or ?v_97 ?v_48) P5)) (or (or ?v_140 P19) P34)) (or (or P24 ?v_140) ?v_125)) (or (or ?v_62 ?v_117) ?v_200)) (or (or P15 ?v_201) ?v_187)) (or (or ?v_200 ?v_175) ?v_108)) (or (or ?v_191 ?v_169) ?v_23)) (or (or P15 ?v_139) ?v_133)) (or (or ?v_175 P36) P14)) (or (or ?v_18 ?v_92) ?v_174)) (or (or ?v_149 ?v_149) ?v_139)) (or (or ?v_86 ?v_108) ?v_184)) (or (or ?v_44 ?v_195) ?v_185)) (or (or P2 ?v_41) ?v_93)) (or (or ?v_164 ?v_4) ?v_149)) (or (or P9 P26) ?v_172)) (or (or ?v_202 ?v_134) ?v_203)) (or (or P31 ?v_121) ?v_85)) (or (or ?v_191 ?v_102) ?v_180)) (or (or ?v_35 ?v_69) ?v_57)) (or (or ?v_33 P28) ?v_70)) (or (or ?v_204 ?v_69) ?v_165)) (or (or ?v_175 ?v_135) ?v_100)) (or (or ?v_155 ?v_22) ?v_127)) (or (or ?v_66 ?v_9) ?v_38)) (or (or ?v_78 ?v_28) ?v_202)) (or (or ?v_187 ?v_178) ?v_168)) (or (or ?v_157 ?v_40) ?v_126)) (or (or ?v_204 ?v_95) ?v_97)) (or (or ?v_141 ?v_158) ?v_195)) (or (or ?v_181 ?v_77) ?v_158)) (or (or ?v_147 ?v_7) ?v_196)) (or (or ?v_23 ?v_105) P3)) (or (or P12 ?v_68) P8)) (or (or ?v_123 ?v_149) P4)) (or (or ?v_188 ?v_147) P23)) (or (or ?v_102 ?v_145) ?v_112)) (or (or ?v_172 ?v_84) ?v_49)) (or (or ?v_207 ?v_178) ?v_44)) (or (or ?v_7 ?v_65) ?v_106)) (or (or ?v_205 ?v_206) ?v_174)) (or (or P30 ?v_206) ?v_123)) (or (or ?v_137 ?v_50) ?v_143)) (or (or P33 P16) P23)) (or (or ?v_202 ?v_147) ?v_125)) (or (or ?v_193 ?v_192) ?v_40)) (or (or ?v_180 ?v_169) ?v_156)) (or (or ?v_102 ?v_54) ?v_207)) (or (or ?v_194 ?v_144) ?v_171)) (or (or ?v_64 ?v_133) ?v_68)) (or (or ?v_50 ?v_122) ?v_42)) (or (or P31 ?v_168) ?v_157)) (or (or ?v_71 ?v_35) ?v_72)) (or (or P21 P21) ?v_90)) (or (or P1 ?v_132) ?v_73)) (or (or ?v_79 P4) ?v_183)) (or (or ?v_116 ?v_19) ?v_131)) (or (or P20 ?v_175) ?v_157)) (or ?v_208 ?v_76)) (or (or ?v_161 ?v_156) ?v_86)) (or (or ?v_85 ?v_44) ?v_139)) (or (or ?v_44 ?v_46) ?v_105)) (or (or ?v_114 ?v_54) ?v_173)) (or (or ?v_172 ?v_182) P30)) (or (or ?v_179 ?v_209) ?v_163)) (or (or ?v_123 ?v_70) ?v_148)) (or (or ?v_169 ?v_4) ?v_49)) (or (or ?v_183 ?v_20) ?v_7)) (or (or ?v_206 ?v_23) ?v_137)) (or (or ?v_104 ?v_148) ?v_141)) (or (or ?v_195 ?v_77) ?v_202)) (or (or ?v_130 ?v_24) ?v_204)) (or (or ?v_3 ?v_111) ?v_40)) (or (or ?v_25 ?v_90) P9)) (or (or P2 ?v_111) ?v_132)) (or (or ?v_165 ?v_96) ?v_134)) (or (or ?v_165 ?v_36) ?v_64)) (or (or ?v_67 ?v_47) ?v_148)) (or (or ?v_197 ?v_55) ?v_23)) (or (or P7 ?v_205) ?v_70)) (or (or ?v_193 ?v_18) ?v_107)) (or (or ?v_9 ?v_62) ?v_159)) (or (or ?v_72 ?v_89) P14)) (or (or ?v_160 ?v_39) ?v_17)) (or (or P25 ?v_114) ?v_178)) (or (or ?v_125 ?v_166) ?v_181)) (or (or ?v_64 ?v_39) ?v_58)) (or (or P31 ?v_13) ?v_76)) (or (or ?v_122 ?v_94) ?v_55)) (or (or P12 P15) ?v_202)) (or (or ?v_2 ?v_137) ?v_162)) (or (or ?v_89 ?v_188) ?v_12)) (or ?v_210 ?v_138)) (or (or P21 ?v_162) ?v_157)) (or (or ?v_186 ?v_12) ?v_39)) (or (or ?v_135 ?v_72) ?v_158)) (or (or P12 ?v_209) ?v_195)) (or (or ?v_79 ?v_142) ?v_59)) (or (or ?v_156 ?v_51) ?v_102)) (or (or ?v_123 ?v_92) P30)) (or (or ?v_96 P15) ?v_55)) (or (or ?v_83 ?v_112) ?v_180)) (or (or P38 P36) ?v_178)) (or (or ?v_164 ?v_211) ?v_126)) (or (or P10 ?v_18) ?v_183)) (or (or ?v_149 ?v_130) P1)) (or (or ?v_165 ?v_192) P14)) (or (or ?v_89 ?v_26) ?v_185)) (or (or P14 ?v_182) ?v_178)) (or (or ?v_41 P27) ?v_205)) (or (or ?v_183 ?v_60) ?v_25)) (or (or ?v_60 ?v_67) P4)) (or (or ?v_204 ?v_141) P3)) (or (or ?v_184 ?v_16) ?v_199)) (or (or ?v_212 ?v_106) ?v_168)) (or (or ?v_95 ?v_26) ?v_148)) (or (or ?v_108 ?v_175) ?v_182)) (or (or ?v_152 ?v_201) ?v_83)) (or (or ?v_106 ?v_147) ?v_65)) (or (or ?v_199 ?v_116) ?v_92)) (or (or ?v_177 P37) P3)) (or (or P28 P7) ?v_28)) (or (or ?v_209 ?v_44) ?v_157)) (or (or ?v_191 ?v_16) ?v_77)) (or (or ?v_194 ?v_79) ?v_44)) (or (or ?v_64 ?v_24) ?v_101)) (or (or ?v_59 ?v_105) ?v_180)) (or (or ?v_37 ?v_55) ?v_20)) (or (or ?v_56 ?v_195) ?v_102)) (or (or P3 P35) P10)) (or (or ?v_123 ?v_3) ?v_181)) (or (or ?v_89 ?v_145) ?v_123)) (or (or ?v_172 ?v_151) ?v_126)) (or (or ?v_71 ?v_76) ?v_106)) (or (or ?v_81 ?v_157) ?v_83)) (or (or ?v_11 ?v_181) ?v_105)) (or (or ?v_159 ?v_68) ?v_47)) (or (or P4 P9) ?v_16)) (or (or ?v_29 P31) ?v_150)) (or (or ?v_18 ?v_135) ?v_70))))))))))))))))))))))))))))))))))
(check-sat)
(exit)
